100
128
3
1
36
39
59
3
6
52
55
19
3
31
31
50
28
20
7
36
24
1
57
1
1
2
5
2
51
25
1
41
42
1
30
25
38
4
28
26
24
28
12
42
23
13
4
41
2
3
11
9
32
19
14
28
6
17
53
6
16
2
3
59
58
28
55
46
2
45
49
1
49
8
49
3
7
55
6
45
4
43
12
18
54
40
6
36
8
60
40
18
45
35
8
1
63
63
4
35
60
33